c 215_4_checker_5cl.cnf
c
c field = 215
c formula set type = 4_checker_5cl
c
p cnf 5 6
420 
422 
424 
426 
-430 
421 
423 
425 
427 
-431 
308 
338 
368 
398 
-278 
309 
339 
369 
399 
-279 
316 
344 
372 
400 
-288 
317 
345 
373 
401 
-289 
